% demand
num_movements = 32;
loading_factor = [1650, 1000, 1700, 1250, 1200, 1250, 1250, 1500, 850, 1700, 1450, 1900, 1300, 1250, 1300, 1950, 1250, 1400, 1900, 1450, 1750, 1550, 950, 1100, 1300, 2000, 1400, 1400, 1450, 950, 950, 950];
pickup_time = [0, 0, 0, 0, 0, 0, 0, 0, 2, 2, 2, 3, 3, 3, 4, 4, 4, 5, 5, 5, 6, 6, 6, 6, 7, 7, 7, 8, 8, 8, 8, 8];
delivery_time = [4, 2, 2, 1, 4, 2, 2, 2, 4, 3, 3, 4, 4, 4, 5, 5, 5, 7, 6, 6, 9, 8, 8, 7, 8, 8, 8, 9, 9, 9, 9, 9];

% transporter definition
total_capacity = 11000;
num_decks = 4;
capacity = [3000, 3000, 1000, 4000];

% ways out of decks
num_ways_out = 2;
paths_out = array3d(decks, ways_out, decks, [
% ways out of deck d1
2, 4, 0, 0, 3, 4, 0, 0, 

% ways out of deck d2
4, 0, 0, 0, 0, 0, 0, 0,	

% ways out of deck d3
4, 0, 0, 0, 0, 0, 0, 0,	

% ways out of deck d4
0, 0, 0, 0,	0, 0, 0, 0,	

]);

